! RKS B3LYP def2-SVP

%pal
nprocs 8
end

%maxcore 2000
%scf
MaxIter 200
end

* xyz 0 1
C  -1.5847   1.1071  -0.2162
C  -0.6083   0.8543   0.9552
H  -3.6133  -0.5923   0.6075
H  -2.9194  -0.7530   3.0217
C  -2.9750   1.4862   0.3421
H  -3.4095   1.6322   3.6622
H  -1.7269   1.1832   4.1010
C  -1.1444  -0.3003   1.8315
C  -2.8525   2.7679   1.1972
H  -3.6769   1.6676  -0.5007
C  -3.5094   0.3309   1.2192
H  -2.4807   3.6074   0.5694
H  -3.8519   3.0576   1.5905
C  -1.8782   2.5162   2.3700
C  -2.5346   0.0779   2.3912
C  -2.4146   1.3606   3.2452
C  -0.4883   2.1354   1.8114
H  -1.2200  -1.2307   1.2266
H  -0.4397  -0.4983   2.6689
H  -4.5166   0.5894   1.6139
H  -1.1992   1.9278  -0.8604
H  -1.6660   0.1937  -0.8456
H   0.2229   1.9650   2.6495
H  -0.0876   2.9682   1.1928
H   0.3914   0.5817   0.5527
H  -1.7912   3.4383   2.9848
*
